p cnf 20 66
c p weight 8 -1 0
c p weight -8 1 0
c p weight 10 6.12323399573676603586882014729198302312846062338790031898128063403419218957424163818359375E-17 0
c p weight -10 1 0
c p weight 11 1 0
c p weight -11 1 0
c p weight 12 -1 0
c p weight -12 1 0
c p weight 14 -1 0
c p weight -14 1 0
c p weight 17 -1 0
c p weight -17 1 0
c p weight 20 -1 0
c p weight -20 1 0
-5 0
-3 0
-1 0
7 5 -6 0
7 -5 6 0
-7 5 6 0
-7 -5 -6 0
-8 5 0
-8 6 0
8 -5 -6 0
9 -5 7 0
-9 5 7 0
-10 7 0
9 -10 -5 0
-9 -10 5 0
9 10 5 -7 0
-9 10 -5 -7 0
-11 7 0
9 -11 5 0
-9 -11 -5 0
9 11 -5 -7 0
-9 11 5 -7 0
-12 9 0
-12 7 0
-12 -5 0
12 -9 5 -7 0
13 9 -7 0
13 -9 7 0
-13 9 7 0
-13 -9 -7 0
-14 9 0
-14 7 0
14 -9 -7 0
15 9 -3 0
15 -9 3 0
-15 9 3 0
-15 -9 -3 0
16 13 -4 0
16 -13 4 0
-16 13 4 0
-16 -13 -4 0
-17 9 0
-17 4 0
-17 3 -13 0
-17 -3 13 0
17 -9 3 13 -4 0
17 -9 -3 -13 -4 0
18 15 -1 0
18 -15 1 0
-18 15 1 0
-18 -15 -1 0
19 4 -2 0
19 -4 2 0
-19 4 2 0
-19 -4 -2 0
-20 15 0
-20 2 0
-20 1 -4 0
-20 -1 4 0
20 -15 1 4 -2 0
20 -15 -1 -4 -2 0
-18 0
-15 0
-19 0
-9 0
-16 0
